solution status: optimal solution found
objective value:                                   10
x42                                                 1 	(obj:1)
x44                                                 1 	(obj:1)
x45                                                 1 	(obj:1)
x57                                                 1 	(obj:1)
x71                                                 1 	(obj:1)
x72                                                 1 	(obj:1)
x73                                                 1 	(obj:1)
x74                                                 1 	(obj:1)
x75                                                 1 	(obj:1)
x76                                                 1 	(obj:1)
one.thingy.devices[2].thingy.vs3_y                   23 	(obj:0)
one.thingy.devices[2].thingy.vs3_z                   24 	(obj:0)
one.ctrl_a[11].flush_y                             24 	(obj:0)
one.ctrl_a[11].flush_z                             21 	(obj:0)
one.ctrl_a[10].flush_y                             24 	(obj:0)
one.ctrl_a[10].flush_z                             22 	(obj:0)
one.pinholes[2].hole_out_c_y                       20 	(obj:0)
one.pinholes[2].hole_out_c_z                       23 	(obj:0)
one.ctrl_a[10].hole_y                              22 	(obj:0)
one.ctrl_a[10].hole_z                              24 	(obj:0)
one.thingy.devices[1].thingy.vs3_y                   23 	(obj:0)
one.thingy.devices[1].thingy.vs3_z                   23 	(obj:0)
$_19__9_y                                         -10 	(obj:0)
$_19__9_z                                          25 	(obj:0)
one.ctrl_a[11].hole_y                              23 	(obj:0)
one.ctrl_a[11].hole_z                              22 	(obj:0)
one.pinholes[1].hole_out_c_y                       24 	(obj:0)
one.pinholes[1].hole_out_c_z                       24 	(obj:0)
$_18__9_y                                         -11 	(obj:0)
$_18__9_z                                          24 	(obj:0)
one.pinholes[0].hole_out_c_y                       23 	(obj:0)
one.pinholes[0].hole_out_c_z                       25 	(obj:0)
one.thingy.devices[3].thingy.vs3_y                   24 	(obj:0)
one.thingy.devices[3].thingy.vs3_z                   23 	(obj:0)
one.thingy.devices[0].thingy.vs3_y                   20 	(obj:0)
one.thingy.devices[0].thingy.vs3_z                   24 	(obj:0)
$_21__9_y                                         -10 	(obj:0)
$_21__9_z                                          24 	(obj:0)
$_20__9_y                                         -11 	(obj:0)
$_20__9_z                                          25 	(obj:0)
one.pinholes[3].hole_out_c_y                       21 	(obj:0)
one.pinholes[3].hole_out_c_z                       24 	(obj:0)
